
Gurobi 7.0.2 (win64) logging started 06/27/20 07:17:52

Read LP format model from file C:\George\Professor\Pesquisa\Orientacoes em Pos-graduacao\2019 MSC PPGCC Guilherme Figueroa\Fanjuls Solver\Results\I_250_10_S_1-124_9_MTZ_KB.lp
Reading time = 2.67 seconds
: 68020 rows, 630251 columns, 2640010 nonzeros
Optimize a model with 68020 rows, 630251 columns and 2640010 nonzeros
Variable types: 2751 continuous, 627500 integer (627500 binary)
Coefficient statistics:
  Matrix range     [1e+00, 3e+02]
  Objective range  [1e+00, 1e+00]
  Bounds range     [1e+00, 1e+00]
  RHS range        [1e+00, 2e+02]
Presolve removed 0 rows and 0 columns (presolve time = 5s) ...
Presolve time: 5.44s
Presolved: 68020 rows, 630251 columns, 2640010 nonzeros
Variable types: 250 continuous, 630001 integer (630000 binary)
Found heuristic solution: objective 27175.000000
Found heuristic solution: objective 27132.000000

Root simplex log...

Iteration    Objective       Primal Inf.    Dual Inf.      Time
       0    0.0000000e+00   5.000000e+02   0.000000e+00     17s
    4792    3.8642396e-04   4.489277e+04   0.000000e+00     20s
    7942    6.7965994e-04   2.083632e+04   0.000000e+00     25s
    8601    7.3575609e-04   1.444342e+04   0.000000e+00     31s
    9137    7.9862106e-04   1.060049e+04   0.000000e+00     36s
    9813    8.9690860e-04   8.350850e+03   0.000000e+00     43s
   10143    9.3950159e-04   8.687061e+03   0.000000e+00     46s
   10971    1.0059965e-03   1.429748e+04   0.000000e+00     53s
   11277    1.0308526e-03   7.549964e+03   0.000000e+00     56s
   11869    1.0976773e-03   4.737474e+03   0.000000e+00     62s
   12317    1.1385828e-03   5.320184e+03   0.000000e+00     68s
   12632    1.1687191e-03   1.389106e+04   0.000000e+00     71s
   13394    1.2170301e-03   6.107297e+03   0.000000e+00     78s
   13778    1.2440877e-03   1.175691e+04   0.000000e+00     81s
   14394    1.2713207e-03   1.741516e+04   0.000000e+00     85s
   16205    1.3951752e-03   4.562904e+03   0.000000e+00     93s
   17070    1.4474472e-03   4.710757e+03   0.000000e+00     95s
   18144    1.5163373e-03   9.105756e+03   0.000000e+00    100s
   19486    1.6129255e-03   6.745050e+03   0.000000e+00    107s
   20529    1.6859833e-03   7.263124e+03   0.000000e+00    110s
   21549    1.7536571e-03   3.719803e+03   0.000000e+00    116s
   22638    1.8161595e-03   1.995646e+04   0.000000e+00    122s
   24142    1.9337463e-03   5.712615e+03   0.000000e+00    126s
   27704    2.2460589e-03   3.748229e+03   0.000000e+00    131s
   29655    2.4536162e-03   9.405569e+03   0.000000e+00    136s
   32888    2.8472666e-03   6.580251e+03   0.000000e+00    142s
   35269    3.2582083e-03   5.365104e+03   0.000000e+00    145s
   40985    5.7313370e-03   1.682029e+04   0.000000e+00    150s
   50472    2.4884897e+02   2.843942e+03   0.000000e+00    155s
   54872    3.0305460e+02   2.406830e+03   0.000000e+00    160s
   57738    3.2293748e+02   2.248725e+03   0.000000e+00    165s
   59586    3.3109213e+02   1.549967e+03   0.000000e+00    171s
   61339    3.3759727e+02   4.313352e+02   0.000000e+00    176s
   62795    3.4190104e+02   8.275405e+02   0.000000e+00    181s
   64008    3.4498493e+02   6.591057e+02   0.000000e+00    186s
   64664    3.4593337e+02   3.806631e+02   0.000000e+00    190s
   65575    3.4756172e+02   3.585259e+02   0.000000e+00    196s
   66270    3.4819032e+02   1.177879e+03   0.000000e+00    200s
   67100    3.4889156e+02   2.921257e+02   0.000000e+00    206s
   67710    3.4919068e+02   2.594184e+02   0.000000e+00    211s
   68161    3.4941705e+02   9.777954e+01   0.000000e+00    215s
   68614    3.4957745e+02   5.060545e+02   0.000000e+00    221s
   68914    3.4973532e+02   2.674793e+03   0.000000e+00    225s
   69521    3.5002294e+02   6.153173e+02   0.000000e+00    232s
   69821    3.5013172e+02   3.499067e+02   0.000000e+00    235s
   70271    3.5028882e+02   6.262895e+01   0.000000e+00    242s
   70571    3.5031821e+02   1.684948e+02   0.000000e+00    247s
   70813    3.5032092e+02   0.000000e+00   0.000000e+00    251s

Root relaxation: objective 3.503209e+02, 70813 iterations, 233.94 seconds

    Nodes    |    Current Node    |     Objective Bounds      |     Work
 Expl Unexpl |  Obj  Depth IntInf | Incumbent    BestBd   Gap | It/Node Time

     0     0  350.32092    0  710 27132.0000  350.32092  98.7%     -  252s
H    0     0                     696.0000000  350.32092  49.7%     -  571s
H    0     0                     548.0000000  350.32092  36.1%     -  786s
     0     0  351.00000    0  807  548.00000  351.00000  35.9%     - 1003s
     0     0  351.00000    0  872  548.00000  351.00000  35.9%     - 1302s
     0     0  351.00000    0  861  548.00000  351.00000  35.9%     - 1307s
     0     0  351.00000    0  625  548.00000  351.00000  35.9%     - 1611s
     0     0  351.00000    0  778  548.00000  351.00000  35.9%     - 1922s
     0     0  351.00000    0  691  548.00000  351.00000  35.9%     - 2301s
     0     0  351.00000    0  776  548.00000  351.00000  35.9%     - 2701s
     0     0  351.03383    0  707  548.00000  351.03383  35.9%     - 3006s
     0     0  351.03383    0  707  548.00000  351.03383  35.9%     - 3008s
     0     0  351.03383    0  707  548.00000  351.03383  35.9%     - 3132s
     0     0  351.07428    0  722  548.00000  351.07428  35.9%     - 3146s
     0     0  351.07428    0  722  548.00000  351.07428  35.9%     - 3244s
     0     0  351.07428    0  722  548.00000  351.07428  35.9%     - 3246s
     0     0  351.07428    0  722  548.00000  351.07428  35.9%     - 3348s
     0     0  351.07659    0  727  548.00000  351.07659  35.9%     - 3353s
     0     0  351.07659    0  727  548.00000  351.07659  35.9%     - 3432s
     0     0  351.07863    0  729  548.00000  351.07863  35.9%     - 3436s
     0     0  351.07863    0  729  548.00000  351.07863  35.9%     - 3537s
     0     0  351.07863    0  729  548.00000  351.07863  35.9%     - 3539s

Cutting planes:
  Gomory: 1
  MIR: 105
  Zero half: 6

Explored 0 nodes (152325 simplex iterations) in 3641.18 seconds
Thread count was 1 (of 12 available processors)

Solution count 4: 548 696 27132 27175 
Pool objective bound 352

Time limit reached
Best objective 5.480000000000e+02, best bound 3.520000000000e+02, gap 35.7664%
